p cnf 280 955
29 38 47 56 0 
-29 -38 0 
-29 -47 0 
-29 -56 0 
-38 -47 0 
-38 -56 0 
-47 -56 0 
-29 -221 210 0 
-29 -221 70 0 
-134 -222 215 0 
-134 -222 76 0 
-143 -223 220 0 
-143 -223 82 0 
-38 -224 210 0 
-38 -224 83 0 
-153 -225 215 0 
-153 -225 89 0 
-162 -226 220 0 
-162 -226 95 0 
-47 -227 210 0 
-47 -227 96 0 
-172 -228 215 0 
-172 -228 102 0 
-181 -229 220 0 
-181 -229 108 0 
-56 -230 210 0 
-56 -230 109 0 
-191 -231 215 0 
-191 -231 115 0 
-200 -232 220 0 
-200 -232 121 0 
-29 -25 -233 70 0 
-29 -25 -233 134 0 
-29 -25 -233 -134 0 
-134 -122 -234 76 0 
-134 -122 -234 143 0 
-134 -122 -234 -143 0 
-143 -123 -235 82 0 
-143 -123 -235 152 0 
-143 -123 -235 -152 0 
-29 -236 83 0 
-29 -236 153 0 
-29 -236 -134 0 
-134 -237 89 0 
-134 -237 162 0 
-134 -237 -143 0 
-143 -238 95 0 
-143 -238 171 0 
-143 -238 -152 0 
-29 -239 96 0 
-29 -239 172 0 
-29 -239 -134 0 
-134 -240 102 0 
-134 -240 181 0 
-134 -240 -143 0 
-143 -241 108 0 
-143 -241 190 0 
-143 -241 -152 0 
-29 -242 109 0 
-29 -242 191 0 
-29 -242 -134 0 
-134 -243 115 0 
-134 -243 200 0 
-134 -243 -143 0 
-143 -244 121 0 
-143 -244 209 0 
-143 -244 -152 0 
-38 -245 70 0 
-38 -245 134 0 
-38 -245 -153 0 
-153 -246 76 0 
-153 -246 143 0 
-153 -246 -162 0 
-162 -247 82 0 
-162 -247 152 0 
-162 -247 -171 0 
-38 -26 -248 83 0 
-38 -26 -248 153 0 
-38 -26 -248 -153 0 
-153 -125 -249 89 0 
-153 -125 -249 162 0 
-153 -125 -249 -162 0 
-162 -126 -250 95 0 
-162 -126 -250 171 0 
-162 -126 -250 -171 0 
-38 -251 96 0 
-38 -251 172 0 
-38 -251 -153 0 
-153 -252 102 0 
-153 -252 181 0 
-153 -252 -162 0 
-162 -253 108 0 
-162 -253 190 0 
-162 -253 -171 0 
-38 -254 109 0 
-38 -254 191 0 
-38 -254 -153 0 
-153 -255 115 0 
-153 -255 200 0 
-153 -255 -162 0 
-162 -256 121 0 
-162 -256 209 0 
-162 -256 -171 0 
-47 -257 70 0 
-47 -257 134 0 
-47 -257 -172 0 
-172 -258 76 0 
-172 -258 143 0 
-172 -258 -181 0 
-181 -259 82 0 
-181 -259 152 0 
-181 -259 -190 0 
-47 -260 83 0 
-47 -260 153 0 
-47 -260 -172 0 
-172 -261 89 0 
-172 -261 162 0 
-172 -261 -181 0 
-181 -262 95 0 
-181 -262 171 0 
-181 -262 -190 0 
-47 -27 -263 96 0 
-47 -27 -263 172 0 
-47 -27 -263 -172 0 
-172 -128 -264 102 0 
-172 -128 -264 181 0 
-172 -128 -264 -181 0 
-181 -129 -265 108 0 
-181 -129 -265 190 0 
-181 -129 -265 -190 0 
-47 -266 109 0 
-47 -266 191 0 
-47 -266 -172 0 
-172 -267 115 0 
-172 -267 200 0 
-172 -267 -181 0 
-181 -268 121 0 
-181 -268 209 0 
-181 -268 -190 0 
-56 -269 70 0 
-56 -269 134 0 
-56 -269 -191 0 
-191 -270 76 0 
-191 -270 143 0 
-191 -270 -200 0 
-200 -271 82 0 
-200 -271 152 0 
-200 -271 -209 0 
-56 -272 83 0 
-56 -272 153 0 
-56 -272 -191 0 
-191 -273 89 0 
-191 -273 162 0 
-191 -273 -200 0 
-200 -274 95 0 
-200 -274 171 0 
-200 -274 -209 0 
-56 -275 96 0 
-56 -275 172 0 
-56 -275 -191 0 
-191 -276 102 0 
-191 -276 181 0 
-191 -276 -200 0 
-200 -277 108 0 
-200 -277 190 0 
-200 -277 -209 0 
-56 -28 -278 109 0 
-56 -28 -278 191 0 
-56 -28 -278 -191 0 
-191 -131 -279 115 0 
-191 -131 -279 200 0 
-191 -131 -279 -200 0 
-200 -132 -280 121 0 
-200 -132 -280 209 0 
-200 -132 -280 -209 0 
-1 70 0 
-29 -221 2 0 
-2 29 0 
-2 221 0 
-29 -25 -233 3 0 
-3 29 0 
-3 25 0 
-3 233 0 
-38 -245 4 0 
-4 38 0 
-4 245 0 
-47 -257 5 0 
-5 47 0 
-5 257 0 
-56 -269 6 0 
-6 56 0 
-6 269 0 
2 3 4 5 6 1 -70 0 
-70 76 0 
-134 -222 71 0 
-71 134 0 
-71 222 0 
-134 -122 -234 72 0 
-72 134 0 
-72 122 0 
-72 234 0 
-153 -246 73 0 
-73 153 0 
-73 246 0 
-172 -258 74 0 
-74 172 0 
-74 258 0 
-191 -270 75 0 
-75 191 0 
-75 270 0 
71 72 73 74 75 70 -76 0 
-76 82 0 
-143 -223 77 0 
-77 143 0 
-77 223 0 
-143 -123 -235 78 0 
-78 143 0 
-78 123 0 
-78 235 0 
-162 -247 79 0 
-79 162 0 
-79 247 0 
-181 -259 80 0 
-80 181 0 
-80 259 0 
-200 -271 81 0 
-81 200 0 
-81 271 0 
77 78 79 80 81 76 -82 0 
-7 83 0 
-38 -224 8 0 
-8 38 0 
-8 224 0 
-29 -236 9 0 
-9 29 0 
-9 236 0 
-38 -26 -248 10 0 
-10 38 0 
-10 26 0 
-10 248 0 
-47 -260 11 0 
-11 47 0 
-11 260 0 
-56 -272 12 0 
-12 56 0 
-12 272 0 
8 9 10 11 12 7 -83 0 
-83 89 0 
-153 -225 84 0 
-84 153 0 
-84 225 0 
-134 -237 85 0 
-85 134 0 
-85 237 0 
-153 -125 -249 86 0 
-86 153 0 
-86 125 0 
-86 249 0 
-172 -261 87 0 
-87 172 0 
-87 261 0 
-191 -273 88 0 
-88 191 0 
-88 273 0 
84 85 86 87 88 83 -89 0 
-89 95 0 
-162 -226 90 0 
-90 162 0 
-90 226 0 
-143 -238 91 0 
-91 143 0 
-91 238 0 
-162 -126 -250 92 0 
-92 162 0 
-92 126 0 
-92 250 0 
-181 -262 93 0 
-93 181 0 
-93 262 0 
-200 -274 94 0 
-94 200 0 
-94 274 0 
90 91 92 93 94 89 -95 0 
-13 96 0 
-47 -227 14 0 
-14 47 0 
-14 227 0 
-29 -239 15 0 
-15 29 0 
-15 239 0 
-38 -251 16 0 
-16 38 0 
-16 251 0 
-47 -27 -263 17 0 
-17 47 0 
-17 27 0 
-17 263 0 
-56 -275 18 0 
-18 56 0 
-18 275 0 
14 15 16 17 18 13 -96 0 
-96 102 0 
-172 -228 97 0 
-97 172 0 
-97 228 0 
-134 -240 98 0 
-98 134 0 
-98 240 0 
-153 -252 99 0 
-99 153 0 
-99 252 0 
-172 -128 -264 100 0 
-100 172 0 
-100 128 0 
-100 264 0 
-191 -276 101 0 
-101 191 0 
-101 276 0 
97 98 99 100 101 96 -102 0 
-102 108 0 
-181 -229 103 0 
-103 181 0 
-103 229 0 
-143 -241 104 0 
-104 143 0 
-104 241 0 
-162 -253 105 0 
-105 162 0 
-105 253 0 
-181 -129 -265 106 0 
-106 181 0 
-106 129 0 
-106 265 0 
-200 -277 107 0 
-107 200 0 
-107 277 0 
103 104 105 106 107 102 -108 0 
-19 109 0 
-56 -230 20 0 
-20 56 0 
-20 230 0 
-29 -242 21 0 
-21 29 0 
-21 242 0 
-38 -254 22 0 
-22 38 0 
-22 254 0 
-47 -266 23 0 
-23 47 0 
-23 266 0 
-56 -28 -278 24 0 
-24 56 0 
-24 28 0 
-24 278 0 
20 21 22 23 24 19 -109 0 
-109 115 0 
-191 -231 110 0 
-110 191 0 
-110 231 0 
-134 -243 111 0 
-111 134 0 
-111 243 0 
-153 -255 112 0 
-112 153 0 
-112 255 0 
-172 -267 113 0 
-113 172 0 
-113 267 0 
-191 -131 -279 114 0 
-114 191 0 
-114 131 0 
-114 279 0 
110 111 112 113 114 109 -115 0 
-115 121 0 
-200 -232 116 0 
-116 200 0 
-116 232 0 
-143 -244 117 0 
-117 143 0 
-117 244 0 
-162 -256 118 0 
-118 162 0 
-118 256 0 
-181 -268 119 0 
-119 181 0 
-119 268 0 
-200 -132 -280 120 0 
-120 200 0 
-120 132 0 
-120 280 0 
116 117 118 119 120 115 -121 0 
-25 122 0 
25 -122 0 
-122 123 0 
122 -123 0 
-123 124 0 
123 -124 0 
-26 125 0 
26 -125 0 
-125 126 0 
125 -126 0 
-126 127 0 
126 -127 0 
-27 128 0 
27 -128 0 
-128 129 0 
128 -129 0 
-129 130 0 
129 -130 0 
-28 131 0 
28 -131 0 
-131 132 0 
131 -132 0 
-132 133 0 
132 -133 0 
-29 -25 -233 30 0 
-30 29 0 
-30 25 0 
-30 233 0 
-29 -236 31 0 
-31 29 0 
-31 236 0 
-29 -239 32 0 
-32 29 0 
-32 239 0 
-29 -242 33 0 
-33 29 0 
-33 242 0 
30 31 32 33 -29 134 0 
-29 -25 -233 34 0 
-34 29 0 
-34 25 0 
-34 233 0 
-38 -245 35 0 
-35 38 0 
-35 245 0 
-47 -257 36 0 
-36 47 0 
-36 257 0 
-56 -269 37 0 
-37 56 0 
-37 269 0 
34 35 36 37 29 -134 0 
-134 -122 -234 135 0 
-135 134 0 
-135 122 0 
-135 234 0 
-134 -237 136 0 
-136 134 0 
-136 237 0 
-134 -240 137 0 
-137 134 0 
-137 240 0 
-134 -243 138 0 
-138 134 0 
-138 243 0 
135 136 137 138 -134 143 0 
-134 -122 -234 139 0 
-139 134 0 
-139 122 0 
-139 234 0 
-153 -246 140 0 
-140 153 0 
-140 246 0 
-172 -258 141 0 
-141 172 0 
-141 258 0 
-191 -270 142 0 
-142 191 0 
-142 270 0 
139 140 141 142 134 -143 0 
-143 -123 -235 144 0 
-144 143 0 
-144 123 0 
-144 235 0 
-143 -238 145 0 
-145 143 0 
-145 238 0 
-143 -241 146 0 
-146 143 0 
-146 241 0 
-143 -244 147 0 
-147 143 0 
-147 244 0 
144 145 146 147 -143 152 0 
-143 -123 -235 148 0 
-148 143 0 
-148 123 0 
-148 235 0 
-162 -247 149 0 
-149 162 0 
-149 247 0 
-181 -259 150 0 
-150 181 0 
-150 259 0 
-200 -271 151 0 
-151 200 0 
-151 271 0 
148 149 150 151 143 -152 0 
-38 -245 39 0 
-39 38 0 
-39 245 0 
-38 -26 -248 40 0 
-40 38 0 
-40 26 0 
-40 248 0 
-38 -251 41 0 
-41 38 0 
-41 251 0 
-38 -254 42 0 
-42 38 0 
-42 254 0 
39 40 41 42 -38 153 0 
-29 -236 43 0 
-43 29 0 
-43 236 0 
-38 -26 -248 44 0 
-44 38 0 
-44 26 0 
-44 248 0 
-47 -260 45 0 
-45 47 0 
-45 260 0 
-56 -272 46 0 
-46 56 0 
-46 272 0 
43 44 45 46 38 -153 0 
-153 -246 154 0 
-154 153 0 
-154 246 0 
-153 -125 -249 155 0 
-155 153 0 
-155 125 0 
-155 249 0 
-153 -252 156 0 
-156 153 0 
-156 252 0 
-153 -255 157 0 
-157 153 0 
-157 255 0 
154 155 156 157 -153 162 0 
-134 -237 158 0 
-158 134 0 
-158 237 0 
-153 -125 -249 159 0 
-159 153 0 
-159 125 0 
-159 249 0 
-172 -261 160 0 
-160 172 0 
-160 261 0 
-191 -273 161 0 
-161 191 0 
-161 273 0 
158 159 160 161 153 -162 0 
-162 -247 163 0 
-163 162 0 
-163 247 0 
-162 -126 -250 164 0 
-164 162 0 
-164 126 0 
-164 250 0 
-162 -253 165 0 
-165 162 0 
-165 253 0 
-162 -256 166 0 
-166 162 0 
-166 256 0 
163 164 165 166 -162 171 0 
-143 -238 167 0 
-167 143 0 
-167 238 0 
-162 -126 -250 168 0 
-168 162 0 
-168 126 0 
-168 250 0 
-181 -262 169 0 
-169 181 0 
-169 262 0 
-200 -274 170 0 
-170 200 0 
-170 274 0 
167 168 169 170 162 -171 0 
-47 -257 48 0 
-48 47 0 
-48 257 0 
-47 -260 49 0 
-49 47 0 
-49 260 0 
-47 -27 -263 50 0 
-50 47 0 
-50 27 0 
-50 263 0 
-47 -266 51 0 
-51 47 0 
-51 266 0 
48 49 50 51 -47 172 0 
-29 -239 52 0 
-52 29 0 
-52 239 0 
-38 -251 53 0 
-53 38 0 
-53 251 0 
-47 -27 -263 54 0 
-54 47 0 
-54 27 0 
-54 263 0 
-56 -275 55 0 
-55 56 0 
-55 275 0 
52 53 54 55 47 -172 0 
-172 -258 173 0 
-173 172 0 
-173 258 0 
-172 -261 174 0 
-174 172 0 
-174 261 0 
-172 -128 -264 175 0 
-175 172 0 
-175 128 0 
-175 264 0 
-172 -267 176 0 
-176 172 0 
-176 267 0 
173 174 175 176 -172 181 0 
-134 -240 177 0 
-177 134 0 
-177 240 0 
-153 -252 178 0 
-178 153 0 
-178 252 0 
-172 -128 -264 179 0 
-179 172 0 
-179 128 0 
-179 264 0 
-191 -276 180 0 
-180 191 0 
-180 276 0 
177 178 179 180 172 -181 0 
-181 -259 182 0 
-182 181 0 
-182 259 0 
-181 -262 183 0 
-183 181 0 
-183 262 0 
-181 -129 -265 184 0 
-184 181 0 
-184 129 0 
-184 265 0 
-181 -268 185 0 
-185 181 0 
-185 268 0 
182 183 184 185 -181 190 0 
-143 -241 186 0 
-186 143 0 
-186 241 0 
-162 -253 187 0 
-187 162 0 
-187 253 0 
-181 -129 -265 188 0 
-188 181 0 
-188 129 0 
-188 265 0 
-200 -277 189 0 
-189 200 0 
-189 277 0 
186 187 188 189 181 -190 0 
-56 -269 57 0 
-57 56 0 
-57 269 0 
-56 -272 58 0 
-58 56 0 
-58 272 0 
-56 -275 59 0 
-59 56 0 
-59 275 0 
-56 -28 -278 60 0 
-60 56 0 
-60 28 0 
-60 278 0 
57 58 59 60 -56 191 0 
-29 -242 61 0 
-61 29 0 
-61 242 0 
-38 -254 62 0 
-62 38 0 
-62 254 0 
-47 -266 63 0 
-63 47 0 
-63 266 0 
-56 -28 -278 64 0 
-64 56 0 
-64 28 0 
-64 278 0 
61 62 63 64 56 -191 0 
-191 -270 192 0 
-192 191 0 
-192 270 0 
-191 -273 193 0 
-193 191 0 
-193 273 0 
-191 -276 194 0 
-194 191 0 
-194 276 0 
-191 -131 -279 195 0 
-195 191 0 
-195 131 0 
-195 279 0 
192 193 194 195 -191 200 0 
-134 -243 196 0 
-196 134 0 
-196 243 0 
-153 -255 197 0 
-197 153 0 
-197 255 0 
-172 -267 198 0 
-198 172 0 
-198 267 0 
-191 -131 -279 199 0 
-199 191 0 
-199 131 0 
-199 279 0 
196 197 198 199 191 -200 0 
-200 -271 201 0 
-201 200 0 
-201 271 0 
-200 -274 202 0 
-202 200 0 
-202 274 0 
-200 -277 203 0 
-203 200 0 
-203 277 0 
-200 -132 -280 204 0 
-204 200 0 
-204 132 0 
-204 280 0 
201 202 203 204 -200 209 0 
-143 -244 205 0 
-205 143 0 
-205 244 0 
-162 -256 206 0 
-206 162 0 
-206 256 0 
-181 -268 207 0 
-207 181 0 
-207 268 0 
-200 -132 -280 208 0 
-208 200 0 
-208 132 0 
-208 280 0 
205 206 207 208 200 -209 0 
-65 210 0 
-29 -221 66 0 
-66 29 0 
-66 221 0 
-38 -224 67 0 
-67 38 0 
-67 224 0 
-47 -227 68 0 
-68 47 0 
-68 227 0 
-56 -230 69 0 
-69 56 0 
-69 230 0 
66 67 68 69 65 -210 0 
-210 215 0 
-134 -222 211 0 
-211 134 0 
-211 222 0 
-153 -225 212 0 
-212 153 0 
-212 225 0 
-172 -228 213 0 
-213 172 0 
-213 228 0 
-191 -231 214 0 
-214 191 0 
-214 231 0 
211 212 213 214 210 -215 0 
-215 220 0 
-143 -223 216 0 
-216 143 0 
-216 223 0 
-162 -226 217 0 
-217 162 0 
-217 226 0 
-181 -229 218 0 
-218 181 0 
-218 229 0 
-200 -232 219 0 
-219 200 0 
-219 232 0 
216 217 218 219 215 -220 0 
-233 -236 0 
-233 -239 0 
-233 -242 0 
-233 -245 0 
-233 -257 0 
-233 -269 0 
-234 -237 0 
-234 -240 0 
-234 -243 0 
-234 -246 0 
-234 -258 0 
-234 -270 0 
-235 -238 0 
-235 -241 0 
-235 -244 0 
-235 -247 0 
-235 -259 0 
-235 -271 0 
-236 -245 0 
-236 -248 0 
-236 -251 0 
-236 -254 0 
-236 -257 0 
-236 -269 0 
-237 -246 0 
-237 -249 0 
-237 -252 0 
-237 -255 0 
-237 -258 0 
-237 -270 0 
-238 -247 0 
-238 -250 0 
-238 -253 0 
-238 -256 0 
-238 -259 0 
-238 -271 0 
-239 -245 0 
-239 -257 0 
-239 -260 0 
-239 -263 0 
-239 -266 0 
-239 -269 0 
-240 -246 0 
-240 -258 0 
-240 -261 0 
-240 -264 0 
-240 -267 0 
-240 -270 0 
-241 -247 0 
-241 -259 0 
-241 -262 0 
-241 -265 0 
-241 -268 0 
-241 -271 0 
-242 -245 0 
-242 -257 0 
-242 -269 0 
-242 -272 0 
-242 -275 0 
-242 -278 0 
-243 -246 0 
-243 -258 0 
-243 -270 0 
-243 -273 0 
-243 -276 0 
-243 -279 0 
-244 -247 0 
-244 -259 0 
-244 -271 0 
-244 -274 0 
-244 -277 0 
-244 -280 0 
-245 -248 0 
-245 -260 0 
-245 -272 0 
-246 -249 0 
-246 -261 0 
-246 -273 0 
-247 -250 0 
-247 -262 0 
-247 -274 0 
-248 -251 0 
-248 -254 0 
-248 -260 0 
-248 -272 0 
-249 -252 0 
-249 -255 0 
-249 -261 0 
-249 -273 0 
-250 -253 0 
-250 -256 0 
-250 -262 0 
-250 -274 0 
-251 -257 0 
-251 -260 0 
-251 -263 0 
-251 -266 0 
-251 -272 0 
-252 -258 0 
-252 -261 0 
-252 -264 0 
-252 -267 0 
-252 -273 0 
-253 -259 0 
-253 -262 0 
-253 -265 0 
-253 -268 0 
-253 -274 0 
-254 -260 0 
-254 -269 0 
-254 -272 0 
-254 -275 0 
-254 -278 0 
-255 -261 0 
-255 -270 0 
-255 -273 0 
-255 -276 0 
-255 -279 0 
-256 -262 0 
-256 -271 0 
-256 -274 0 
-256 -277 0 
-256 -280 0 
-257 -263 0 
-257 -275 0 
-258 -264 0 
-258 -276 0 
-259 -265 0 
-259 -277 0 
-260 -263 0 
-260 -275 0 
-261 -264 0 
-261 -276 0 
-262 -265 0 
-262 -277 0 
-263 -266 0 
-263 -275 0 
-264 -267 0 
-264 -276 0 
-265 -268 0 
-265 -277 0 
-266 -269 0 
-266 -272 0 
-266 -275 0 
-266 -278 0 
-267 -270 0 
-267 -273 0 
-267 -276 0 
-267 -279 0 
-268 -271 0 
-268 -274 0 
-268 -277 0 
-268 -280 0 
-269 -278 0 
-270 -279 0 
-271 -280 0 
-272 -278 0 
-273 -279 0 
-274 -280 0 
-275 -278 0 
-276 -279 0 
-277 -280 0 
